2025-03-05 21:57:10,244 - INFO - Set parameter WLSAccessID
2025-03-05 21:57:10,244 - INFO - Set parameter WLSSecret
2025-03-05 21:57:10,244 - INFO - Set parameter LicenseID to value 2628134
2025-03-05 21:57:10,494 - INFO - Academic license 2628134 - for non-commercial use only - registered to bs___@uw.edu
2025-03-05 21:57:10,494 - INFO - Initialization complete
2025-03-05 21:57:11,138 - INFO - Variables created successfully
2025-03-05 21:57:16,129 - INFO - Constraints added successfully
2025-03-05 21:57:16,144 - INFO - Objective function set successfully
2025-03-05 21:57:16,276 - INFO - System has 373.7 GB of RAM available
2025-03-05 21:57:16,276 - INFO - Set parameter MemLimit to value 344064
2025-03-05 21:57:16,276 - INFO - Set Gurobi memory limit to 336 GB
2025-03-05 21:57:16,276 - INFO - Set parameter MIPGap to value 0.1
2025-03-05 21:57:16,276 - INFO - Set parameter TimeLimit to value 7200
2025-03-05 21:57:16,276 - INFO - Set parameter MIPFocus to value 1
2025-03-05 21:57:16,277 - INFO - Set parameter Presolve to value 2
2025-03-05 21:57:16,277 - INFO - Set parameter NodefileStart to value 0.95
2025-03-05 21:57:16,277 - INFO - Set parameter NodefileDir to value "/tmp/gurobi_nodefiles"
2025-03-05 21:57:16,277 - INFO - Using node file directory: /tmp/gurobi_nodefiles
2025-03-05 21:57:16,277 - INFO - Set parameter NodeMethod to value 1
2025-03-05 21:57:16,277 - INFO - Set parameter PoolSearchMode to value 2
2025-03-05 21:57:16,277 - INFO - Set parameter RINS to value 10
2025-03-05 21:57:16,278 - INFO - Set parameter Threads to value 46
2025-03-05 21:57:16,278 - INFO - Using 46 threads out of 48 available cores
2025-03-05 21:57:16,278 - INFO - Generating initial solution using advanced greedy algorithm...
2025-03-05 21:57:16,965 - INFO - Greedy algorithm generated initial values for: 1914 x vars, 117 z vars, 1914 y vars
2025-03-05 21:57:16,974 - INFO - Initial solution: 1914/400 students assigned, 117/118 sections used
2025-03-05 21:57:16,974 - INFO - Starting optimization - accepting solutions within 10% of optimal
2025-03-05 21:57:16,974 - INFO - Maximum possible satisfied requests: 2400
2025-03-05 21:57:17,096 - INFO - Gurobi Optimizer version 10.0.3 build v10.0.3rc0 (linux64)
2025-03-05 21:57:17,096 - INFO - 
2025-03-05 21:57:17,096 - INFO - CPU model: Intel(R) Xeon(R) Platinum 8259CL CPU @ 2.50GHz, instruction set [SSE2|AVX|AVX2|AVX512]
2025-03-05 21:57:17,096 - INFO - Thread count: 24 physical cores, 48 logical processors, using up to 46 threads
2025-03-05 21:57:17,096 - INFO - 
2025-03-05 21:57:17,098 - INFO - Academic license 2628134 - for non-commercial use only - registered to bs___@uw.edu
2025-03-05 21:57:17,098 - INFO - Optimize a model with 435250 rows, 161828 columns and 1181560 nonzeros
2025-03-05 21:57:17,112 - INFO - Model fingerprint: 0x8cc412f8
2025-03-05 21:57:17,113 - INFO - Variable types: 0 continuous, 161828 integer (161828 binary)
2025-03-05 21:57:17,115 - INFO - Coefficient statistics:
2025-03-05 21:57:17,115 - INFO -   Matrix range     [1e+00, 1e+00]
2025-03-05 21:57:17,115 - INFO -   Objective range  [1e+00, 1e+00]
2025-03-05 21:57:17,115 - INFO -   Bounds range     [1e+00, 1e+00]
2025-03-05 21:57:17,115 - INFO -   RHS range        [1e+00, 4e+01]
2025-03-05 21:57:17,115 - INFO - 
2025-03-05 21:57:17,118 - INFO - Warning: Completing partial solution with 157883 unfixed non-continuous variables out of 161828
2025-03-05 21:57:17,371 - INFO - User MIP start did not produce a new incumbent solution
2025-03-05 21:57:17,377 - INFO - 
2025-03-05 21:57:22,573 - INFO - Presolve removed 300 rows and 40 columns (presolve time = 5s) ...
2025-03-05 21:57:50,869 - INFO - Presolve removed 300 rows and 40 columns (presolve time = 33s) ...
2025-03-05 21:58:01,338 - INFO - Presolve removed 300 rows and 40 columns (presolve time = 44s) ...
2025-03-05 21:58:17,352 - INFO - Presolve removed 300 rows and 40 columns (presolve time = 60s) ...
2025-03-05 21:58:17,569 - INFO - Presolve removed 300 rows and 40 columns (presolve time = 60s) ...
2025-03-05 21:58:34,774 - INFO - Presolve removed 300 rows and 40 columns (presolve time = 77s) ...
2025-03-05 21:58:37,572 - INFO - Presolve removed 18323 rows and 40 columns (presolve time = 80s) ...
2025-03-05 21:58:42,569 - INFO - Presolve removed 18323 rows and 40 columns (presolve time = 85s) ...
2025-03-05 21:59:14,036 - INFO - Presolve removed 18323 rows and 40 columns (presolve time = 116s) ...
2025-03-05 21:59:24,580 - INFO - Presolve removed 18323 rows and 40 columns (presolve time = 127s) ...
2025-03-05 21:59:41,660 - INFO - Presolve removed 18323 rows and 40 columns (presolve time = 144s) ...
2025-03-05 21:59:41,806 - INFO - Presolve removed 18323 rows and 40 columns
2025-03-05 21:59:41,806 - INFO - Presolve time: 144.24s
2025-03-05 21:59:41,808 - INFO - Presolved: 416927 rows, 161788 columns, 1542779 nonzeros
2025-03-05 21:59:42,054 - INFO - Variable types: 0 continuous, 161788 integer (161788 binary)
2025-03-05 21:59:44,885 - INFO - 
2025-03-05 21:59:44,885 - INFO - Deterministic concurrent LP optimizer: primal simplex, dual simplex, and barrier
2025-03-05 21:59:44,885 - INFO - Showing barrier log only...
2025-03-05 21:59:44,885 - INFO - 
2025-03-05 21:59:50,767 - INFO - Root relaxation presolved: 416925 rows, 161790 columns, 1542747 nonzeros
2025-03-05 21:59:50,767 - INFO - 
2025-03-05 21:59:51,124 - INFO - Root barrier log...
2025-03-05 21:59:51,124 - INFO - 
2025-03-05 21:59:51,141 - INFO - Ordering time: 0.01s
2025-03-05 21:59:51,174 - INFO - 
2025-03-05 21:59:51,174 - INFO - Barrier statistics:
2025-03-05 21:59:51,174 - INFO -  AA' NZ     : 1.556e+05
2025-03-05 21:59:51,174 - INFO -  Factor NZ  : 1.011e+06 (roughly 15 MB of memory)
2025-03-05 21:59:51,174 - INFO -  Factor Ops : 1.401e+08 (less than 1 second per iteration)
2025-03-05 21:59:51,174 - INFO -  Threads    : 44
2025-03-05 21:59:51,189 - INFO - 
2025-03-05 21:59:51,189 - INFO -                   Objective                Residual
2025-03-05 21:59:51,189 - INFO - Iter       Primal          Dual         Primal    Dual     Compl     Time
2025-03-05 21:59:51,189 - INFO -    0   2.40000000e+03  2.41568437e+03  4.79e+01 0.00e+00  3.69e-01   154s
2025-03-05 21:59:51,198 - INFO -    1   2.40000000e+03  2.56725207e+03  2.13e+01 1.02e-02  1.46e-01   154s
2025-03-05 21:59:51,208 - INFO -    2   2.40000000e+03  2.54662461e+03  1.30e+00 2.64e-16  1.46e-02   154s
2025-03-05 21:59:51,217 - INFO -    3   2.40000000e+03  2.48760971e+03  4.88e-01 1.80e-16  6.32e-03   154s
2025-03-05 21:59:51,226 - INFO -    4   2.40000000e+03  2.42073213e+03  1.88e-01 1.32e-16  1.31e-03   154s
2025-03-05 21:59:51,233 - INFO -    5   2.40000000e+03  2.40587475e+03  2.03e-04 6.42e-17  2.81e-04   154s
2025-03-05 21:59:51,242 - INFO -    6   2.40000000e+03  2.40000587e+03  3.46e-14 4.92e-17  2.81e-07   154s
2025-03-05 21:59:51,249 - INFO -    7   2.40000000e+03  2.40000000e+03  2.71e-14 2.54e-20  2.82e-13   154s
2025-03-05 21:59:51,258 - INFO -    8   2.40000000e+03  2.40000000e+03  6.44e-15 6.49e-26  2.82e-16   154s
2025-03-05 21:59:51,258 - INFO - 
2025-03-05 21:59:51,258 - INFO - Barrier solved model in 8 iterations and 154.16 seconds (111.91 work units)
2025-03-05 21:59:51,258 - INFO - Optimal objective 2.40000000e+03
2025-03-05 21:59:51,259 - INFO - 
2025-03-05 21:59:51,262 - INFO - 
2025-03-05 21:59:51,262 - INFO - Root crossover log...
2025-03-05 21:59:51,262 - INFO - 
2025-03-05 21:59:51,265 - INFO -        0 DPushes remaining with DInf 0.0000000e+00               154s
2025-03-05 21:59:51,268 - INFO - 
2025-03-05 21:59:51,268 - INFO -      964 PPushes remaining with PInf 0.0000000e+00               154s
2025-03-05 21:59:51,280 - INFO -        0 PPushes remaining with PInf 0.0000000e+00               154s
2025-03-05 21:59:51,280 - INFO - 
2025-03-05 21:59:51,280 - INFO -   Push phase complete: Pinf 0.0000000e+00, Dinf 0.0000000e+00    154s
2025-03-05 21:59:51,280 - INFO - 
2025-03-05 21:59:51,283 - INFO - 
2025-03-05 21:59:51,283 - INFO - Root simplex log...
2025-03-05 21:59:51,283 - INFO - 
2025-03-05 21:59:51,283 - INFO - Iteration    Objective       Primal Inf.    Dual Inf.      Time
2025-03-05 21:59:51,283 - INFO -      967    2.4000000e+03   0.000000e+00   0.000000e+00    154s
2025-03-05 21:59:51,288 - INFO -      967    2.4000000e+03   0.000000e+00   0.000000e+00    154s
2025-03-05 21:59:51,346 - INFO - 
2025-03-05 21:59:51,347 - INFO - Use crossover to convert LP symmetric solution to basic solution...
2025-03-05 21:59:51,778 - INFO - 
2025-03-05 21:59:51,778 - INFO - Root crossover log...
2025-03-05 21:59:51,778 - INFO - 
2025-03-05 21:59:51,850 - INFO -    12911 PPushes remaining with PInf 0.0000000e+00               155s
2025-03-05 21:59:52,229 - INFO -     4700 PPushes remaining with PInf 0.0000000e+00               155s
2025-03-05 21:59:52,741 - INFO -        0 PPushes remaining with PInf 0.0000000e+00               156s
2025-03-05 21:59:52,760 - INFO - 
2025-03-05 21:59:52,760 - INFO -   Push phase complete: Pinf 0.0000000e+00, Dinf 0.0000000e+00    156s
2025-03-05 21:59:52,760 - INFO - 
2025-03-05 21:59:52,846 - INFO - 
2025-03-05 21:59:52,846 - INFO - Root simplex log...
2025-03-05 21:59:52,846 - INFO - 
2025-03-05 21:59:52,846 - INFO - Iteration    Objective       Primal Inf.    Dual Inf.      Time
2025-03-05 21:59:52,846 - INFO -    13881    2.4000000e+03   0.000000e+00   0.000000e+00    156s
2025-03-05 21:59:52,960 - INFO -    13881    2.4000000e+03   0.000000e+00   0.000000e+00    156s
2025-03-05 21:59:52,962 - INFO - Concurrent spin time: 0.26s
2025-03-05 21:59:52,962 - INFO - 
2025-03-05 21:59:52,962 - INFO - Solved with primal simplex
2025-03-05 21:59:52,973 - INFO - 
2025-03-05 21:59:52,973 - INFO - Root relaxation: objective 2.400000e+03, 15131 iterations, 8.09 seconds (4.91 work units)
2025-03-05 21:59:53,239 - INFO - 
2025-03-05 21:59:53,239 - INFO -     Nodes    |    Current Node    |     Objective Bounds      |     Work
2025-03-05 21:59:53,239 - INFO -  Expl Unexpl |  Obj  Depth IntInf | Incumbent    BestBd   Gap | It/Node Time
2025-03-05 21:59:53,240 - INFO - 
2025-03-05 21:59:53,240 - INFO - H    0     0                    2400.0000000 2400.00000  0.00%     -  156s
2025-03-05 21:59:54,497 - INFO -      0     0          -    0      2400.00000 2400.00000  0.00%     -  157s
2025-03-05 21:59:54,497 - INFO - 
2025-03-05 21:59:54,497 - INFO - Optimal solution found at node 0 - now completing solution pool...
2025-03-05 21:59:54,609 - INFO - 
2025-03-05 21:59:54,609 - INFO -     Nodes    |    Current Node    |      Pool Obj. Bounds     |     Work
2025-03-05 21:59:54,609 - INFO -              |                    |   Worst                   |
2025-03-05 21:59:54,609 - INFO -  Expl Unexpl |  Obj  Depth IntInf | Incumbent    BestBd   Gap | It/Node Time
2025-03-05 21:59:54,609 - INFO - 
2025-03-05 21:59:54,609 - INFO -      0     0          -    0               - 2400.00000      -     -  157s
2025-03-05 21:59:54,626 - INFO -      0     0          -    0               - 2400.00000      -     -  157s
2025-03-05 21:59:54,912 - INFO -      0     2          -    0               - 2400.00000      -     -  157s
2025-03-05 21:59:58,168 - INFO -      3     8          -    2               - 2400.00000      -   0.3  161s
2025-03-05 22:00:00,837 - INFO - 
2025-03-05 22:00:00,837 - INFO - Explored 31 nodes (36639 simplex iterations) in 163.74 seconds (117.59 work units)
2025-03-05 22:00:00,837 - INFO - Thread count was 46 (of 48 available processors)
2025-03-05 22:00:00,837 - INFO - 
2025-03-05 22:00:00,837 - INFO - Solution count 10: 2400 2400 2400 ... 2400
2025-03-05 22:00:00,837 - INFO - 
2025-03-05 22:00:00,837 - INFO - Optimal solution found (tolerance 1.00e-01)
2025-03-05 22:00:00,845 - INFO - Best objective 2.400000000000e+03, best bound 2.400000000000e+03, gap 0.0000%
2025-03-05 22:00:00,974 - INFO - Found solution within 10% of optimal
2025-03-05 22:00:00,974 - INFO - Satisfied requests: 2400.0 out of 2400
2025-03-05 22:00:00,974 - INFO - Satisfaction rate: 100.00%
2025-03-05 22:00:01,040 - INFO - Solution saved successfully
2025-03-05 22:00:01,041 - INFO - Warning: environment still referenced so free is deferred (Continue to use WLS)
